sat
(((select A (_ +oo 8 24)) (fp #b0 #b00000000000 #x0000000000001)))
(((select A2 (_ +oo 8 24)) (fp #b0 #b00000000010 #x0000000000010)))
(((select B 0) (fp #b0 #b00000000000 #x0000000000001)))
(((select B 1) (_ +zero 11 53)))
((C (store ((as const (Array (_ FloatingPoint 11 53) Int)) 4) (_ -oo 11 53) 5)))
